NAME /Users/henri/Research/solvers/instances/idol-instances/robust/collection/spp_dkp_Lefebvre_et_al_2026/shortest_path_11_6/uncertainty_sets/discrete_knapsack
ROWS
 N  OBJ
 L  primal_lower
COLUMNS
    MARKER    'MARKER'                 'INTORG'
    y[0,1]     OBJ        0
    y[0,1]     primal_lower -0.07
    y[0,2]     OBJ        0
    y[0,2]     primal_lower -3.82
    y[0,3]     OBJ        0
    y[0,3]     primal_lower -1.22
    y[0,4]     OBJ        0
    y[0,4]     primal_lower -1.28
    y[0,5]     OBJ        0
    y[0,5]     primal_lower -3.39
    y[0,6]     OBJ        0
    y[0,6]     primal_lower -1.39
    y[0,7]     OBJ        0
    y[0,7]     primal_lower -3.7
    y[0,8]     OBJ        0
    y[0,8]     primal_lower -1.92
    y[0,9]     OBJ        0
    y[0,9]     primal_lower -2.35
    y[0,10]    OBJ        0
    y[0,10]    primal_lower -1.53
    y[1,0]     OBJ        0
    y[1,0]     primal_lower -0.48
    y[1,2]     OBJ        0
    y[1,2]     primal_lower -0.61
    y[1,3]     OBJ        0
    y[1,3]     primal_lower -1.91
    y[1,4]     OBJ        0
    y[1,4]     primal_lower -3.14
    y[1,6]     OBJ        0
    y[1,6]     primal_lower -1.97
    y[1,7]     OBJ        0
    y[1,7]     primal_lower -2.54
    y[1,8]     OBJ        0
    y[1,8]     primal_lower -1.44
    y[1,10]    OBJ        0
    y[1,10]    primal_lower -1.95
    y[2,0]     OBJ        0
    y[2,0]     primal_lower -0.8
    y[2,1]     OBJ        0
    y[2,1]     primal_lower -1.75
    y[2,3]     OBJ        0
    y[2,3]     primal_lower -0.57
    y[2,4]     OBJ        0
    y[2,4]     primal_lower -0.16
    y[2,5]     OBJ        0
    y[2,5]     primal_lower -0.35
    y[2,6]     OBJ        0
    y[2,6]     primal_lower -0.91
    y[2,7]     OBJ        0
    y[2,7]     primal_lower -2.34
    y[2,8]     OBJ        0
    y[2,8]     primal_lower -2.81
    y[2,9]     OBJ        0
    y[2,9]     primal_lower -2.52
    y[2,10]    OBJ        0
    y[2,10]    primal_lower -2.46
    y[3,0]     OBJ        0
    y[3,0]     primal_lower -1.43
    y[3,1]     OBJ        0
    y[3,1]     primal_lower -1.63
    y[3,2]     OBJ        0
    y[3,2]     primal_lower -1.72
    y[3,5]     OBJ        0
    y[3,5]     primal_lower -2.91
    y[3,7]     OBJ        0
    y[3,7]     primal_lower -0.63
    y[3,8]     OBJ        0
    y[3,8]     primal_lower -3.38
    y[3,10]    OBJ        0
    y[3,10]    primal_lower -0.16
    y[4,0]     OBJ        0
    y[4,0]     primal_lower -2.63
    y[4,1]     OBJ        0
    y[4,1]     primal_lower -0.65
    y[4,2]     OBJ        0
    y[4,2]     primal_lower -3.31
    y[4,5]     OBJ        0
    y[4,5]     primal_lower -1.13
    y[4,6]     OBJ        0
    y[4,6]     primal_lower -3.31
    y[4,7]     OBJ        0
    y[4,7]     primal_lower -1.23
    y[4,8]     OBJ        0
    y[4,8]     primal_lower -2.79
    y[4,9]     OBJ        0
    y[4,9]     primal_lower -4.07
    y[5,0]     OBJ        0
    y[5,0]     primal_lower -3.93
    y[5,2]     OBJ        0
    y[5,2]     primal_lower -0.71
    y[5,3]     OBJ        0
    y[5,3]     primal_lower -1.45
    y[5,4]     OBJ        0
    y[5,4]     primal_lower -0.39
    y[5,7]     OBJ        0
    y[5,7]     primal_lower -2.97
    y[5,9]     OBJ        0
    y[5,9]     primal_lower -2.91
    y[5,10]    OBJ        0
    y[5,10]    primal_lower -3.89
    y[6,0]     OBJ        0
    y[6,0]     primal_lower -1.31
    y[6,1]     OBJ        0
    y[6,1]     primal_lower -0.78
    y[6,2]     OBJ        0
    y[6,2]     primal_lower -0.15
    y[6,4]     OBJ        0
    y[6,4]     primal_lower -1.59
    y[6,7]     OBJ        0
    y[6,7]     primal_lower -4.12
    y[6,8]     OBJ        0
    y[6,8]     primal_lower -2.48
    y[6,9]     OBJ        0
    y[6,9]     primal_lower -3.81
    y[7,0]     OBJ        0
    y[7,0]     primal_lower -2.22
    y[7,1]     OBJ        0
    y[7,1]     primal_lower -3.12
    y[7,2]     OBJ        0
    y[7,2]     primal_lower -1.64
    y[7,3]     OBJ        0
    y[7,3]     primal_lower -4.25
    y[7,4]     OBJ        0
    y[7,4]     primal_lower -1.68
    y[7,5]     OBJ        0
    y[7,5]     primal_lower -0.61
    y[7,6]     OBJ        0
    y[7,6]     primal_lower -3.89
    y[7,8]     OBJ        0
    y[7,8]     primal_lower -0.26
    y[7,10]    OBJ        0
    y[7,10]    primal_lower -0.39
    y[8,0]     OBJ        0
    y[8,0]     primal_lower -2
    y[8,1]     OBJ        0
    y[8,2]     OBJ        0
    y[8,2]     primal_lower -2.95
    y[8,3]     OBJ        0
    y[8,3]     primal_lower -1.63
    y[8,4]     OBJ        0
    y[8,4]     primal_lower -3.05
    y[8,6]     OBJ        0
    y[8,6]     primal_lower -2.6
    y[8,7]     OBJ        0
    y[8,7]     primal_lower -3.97
    y[8,9]     OBJ        0
    y[8,9]     primal_lower -0.34
    y[8,10]    OBJ        0
    y[8,10]    primal_lower -2.64
    y[9,0]     OBJ        0
    y[9,0]     primal_lower -2.57
    y[9,2]     OBJ        0
    y[9,2]     primal_lower -1.51
    y[9,4]     OBJ        0
    y[9,4]     primal_lower -1.45
    y[9,5]     OBJ        0
    y[9,5]     primal_lower -0.07
    y[9,6]     OBJ        0
    y[9,6]     primal_lower -3.56
    y[9,8]     OBJ        0
    y[9,8]     primal_lower -3.19
    y[10,0]    OBJ        0
    y[10,0]    primal_lower -1.5
    y[10,1]    OBJ        0
    y[10,1]    primal_lower -2.08
    y[10,2]    OBJ        0
    y[10,2]    primal_lower -2.46
    y[10,3]    OBJ        0
    y[10,3]    primal_lower -1.19
    y[10,5]    OBJ        0
    y[10,5]    primal_lower -1.2
    y[10,7]    OBJ        0
    y[10,7]    primal_lower -4.22
    y[10,8]    OBJ        0
    y[10,8]    primal_lower -1.91
    u[0,1]     OBJ        0
    u[0,1]     primal_lower 51
    u[0,2]     OBJ        0
    u[0,2]     primal_lower 25
    u[0,3]     OBJ        0
    u[0,3]     primal_lower 23
    u[0,4]     OBJ        0
    u[0,4]     primal_lower 10
    u[0,5]     OBJ        0
    u[0,5]     primal_lower 33
    u[0,6]     OBJ        0
    u[0,6]     primal_lower 67
    u[0,7]     OBJ        0
    u[0,7]     primal_lower 78
    u[0,8]     OBJ        0
    u[0,8]     primal_lower 75
    u[0,9]     OBJ        0
    u[0,9]     primal_lower 83
    u[0,10]    OBJ        0
    u[0,10]    primal_lower 33
    u[1,0]     OBJ        0
    u[1,0]     primal_lower 49
    u[1,2]     OBJ        0
    u[1,2]     primal_lower 92
    u[1,3]     OBJ        0
    u[1,3]     primal_lower 36
    u[1,4]     OBJ        0
    u[1,4]     primal_lower 9
    u[1,6]     OBJ        0
    u[1,6]     primal_lower 83
    u[1,7]     OBJ        0
    u[1,7]     primal_lower 63
    u[1,8]     OBJ        0
    u[1,8]     primal_lower 48
    u[1,10]    OBJ        0
    u[1,10]    primal_lower 74
    u[2,0]     OBJ        0
    u[2,0]     primal_lower 13
    u[2,1]     OBJ        0
    u[2,1]     primal_lower 86
    u[2,3]     OBJ        0
    u[2,3]     primal_lower 27
    u[2,4]     OBJ        0
    u[2,4]     primal_lower 42
    u[2,5]     OBJ        0
    u[2,5]     primal_lower 22
    u[2,6]     OBJ        0
    u[2,6]     primal_lower 74
    u[2,7]     OBJ        0
    u[2,7]     primal_lower 83
    u[2,8]     OBJ        0
    u[2,8]     primal_lower 26
    u[2,9]     OBJ        0
    u[2,9]     primal_lower 11
    u[2,10]    OBJ        0
    u[2,10]    primal_lower 21
    u[3,0]     OBJ        0
    u[3,0]     primal_lower 44
    u[3,1]     OBJ        0
    u[3,1]     primal_lower 78
    u[3,2]     OBJ        0
    u[3,2]     primal_lower 8
    u[3,5]     OBJ        0
    u[3,5]     primal_lower 31
    u[3,7]     OBJ        0
    u[3,7]     primal_lower 92
    u[3,8]     OBJ        0
    u[3,8]     primal_lower 89
    u[3,10]    OBJ        0
    u[3,10]    primal_lower 87
    u[4,0]     OBJ        0
    u[4,0]     primal_lower 45
    u[4,1]     OBJ        0
    u[4,1]     primal_lower 92
    u[4,2]     OBJ        0
    u[4,2]     primal_lower 10
    u[4,5]     OBJ        0
    u[4,5]     primal_lower 77
    u[4,6]     OBJ        0
    u[4,6]     primal_lower 21
    u[4,7]     OBJ        0
    u[4,7]     primal_lower 24
    u[4,8]     OBJ        0
    u[4,8]     primal_lower 89
    u[4,9]     OBJ        0
    u[4,9]     primal_lower 59
    u[5,0]     OBJ        0
    u[5,0]     primal_lower 82
    u[5,2]     OBJ        0
    u[5,2]     primal_lower 3
    u[5,3]     OBJ        0
    u[5,3]     primal_lower 71
    u[5,4]     OBJ        0
    u[5,4]     primal_lower 10
    u[5,7]     OBJ        0
    u[5,7]     primal_lower 39
    u[5,9]     OBJ        0
    u[5,9]     primal_lower 76
    u[5,10]    OBJ        0
    u[5,10]    primal_lower 80
    u[6,0]     OBJ        0
    u[6,0]     primal_lower 99
    u[6,1]     OBJ        0
    u[6,1]     primal_lower 18
    u[6,2]     OBJ        0
    u[6,2]     primal_lower 21
    u[6,4]     OBJ        0
    u[6,4]     primal_lower 3
    u[6,7]     OBJ        0
    u[6,7]     primal_lower 55
    u[6,8]     OBJ        0
    u[6,8]     primal_lower 7
    u[6,9]     OBJ        0
    u[6,9]     primal_lower 81
    u[7,0]     OBJ        0
    u[7,0]     primal_lower 25
    u[7,1]     OBJ        0
    u[7,1]     primal_lower 6
    u[7,2]     OBJ        0
    u[7,2]     primal_lower 96
    u[7,3]     OBJ        0
    u[7,3]     primal_lower 5
    u[7,4]     OBJ        0
    u[7,4]     primal_lower 100
    u[7,5]     OBJ        0
    u[7,5]     primal_lower 23
    u[7,6]     OBJ        0
    u[7,6]     primal_lower 63
    u[7,8]     OBJ        0
    u[7,8]     primal_lower 27
    u[7,10]    OBJ        0
    u[7,10]    primal_lower 23
    u[8,0]     OBJ        0
    u[8,0]     primal_lower 36
    u[8,1]     OBJ        0
    u[8,1]     primal_lower 54
    u[8,2]     OBJ        0
    u[8,2]     primal_lower 59
    u[8,3]     OBJ        0
    u[8,3]     primal_lower 31
    u[8,4]     OBJ        0
    u[8,4]     primal_lower 76
    u[8,6]     OBJ        0
    u[8,6]     primal_lower 56
    u[8,7]     OBJ        0
    u[8,7]     primal_lower 31
    u[8,9]     OBJ        0
    u[8,9]     primal_lower 16
    u[8,10]    OBJ        0
    u[8,10]    primal_lower 56
    u[9,0]     OBJ        0
    u[9,0]     primal_lower 18
    u[9,2]     OBJ        0
    u[9,2]     primal_lower 39
    u[9,4]     OBJ        0
    u[9,4]     primal_lower 74
    u[9,5]     OBJ        0
    u[9,5]     primal_lower 74
    u[9,6]     OBJ        0
    u[9,6]     primal_lower 47
    u[9,8]     OBJ        0
    u[9,8]     primal_lower 18
    u[10,0]    OBJ        0
    u[10,0]    primal_lower 75
    u[10,1]    OBJ        0
    u[10,1]    primal_lower 41
    u[10,2]    OBJ        0
    u[10,2]    primal_lower 73
    u[10,3]    OBJ        0
    u[10,3]    primal_lower 9
    u[10,5]    OBJ        0
    u[10,5]    primal_lower 1
    u[10,7]    OBJ        0
    u[10,7]    primal_lower 41
    u[10,8]    OBJ        0
    u[10,8]    primal_lower 34
    MARKER    'MARKER'                 'INTEND'
RHS
    RHS       primal_lower 377
BOUNDS
 LI BND       y[0,1]     0
 UI BND       y[0,1]     1
 LI BND       y[0,2]     0
 UI BND       y[0,2]     1
 LI BND       y[0,3]     0
 UI BND       y[0,3]     1
 LI BND       y[0,4]     0
 UI BND       y[0,4]     1
 LI BND       y[0,5]     0
 UI BND       y[0,5]     1
 LI BND       y[0,6]     0
 UI BND       y[0,6]     1
 LI BND       y[0,7]     0
 UI BND       y[0,7]     1
 LI BND       y[0,8]     0
 UI BND       y[0,8]     1
 LI BND       y[0,9]     0
 UI BND       y[0,9]     1
 LI BND       y[0,10]    0
 UI BND       y[0,10]    1
 LI BND       y[1,0]     0
 UI BND       y[1,0]     1
 LI BND       y[1,2]     0
 UI BND       y[1,2]     1
 LI BND       y[1,3]     0
 UI BND       y[1,3]     1
 LI BND       y[1,4]     0
 UI BND       y[1,4]     1
 LI BND       y[1,6]     0
 UI BND       y[1,6]     1
 LI BND       y[1,7]     0
 UI BND       y[1,7]     1
 LI BND       y[1,8]     0
 UI BND       y[1,8]     1
 LI BND       y[1,10]    0
 UI BND       y[1,10]    1
 LI BND       y[2,0]     0
 UI BND       y[2,0]     1
 LI BND       y[2,1]     0
 UI BND       y[2,1]     1
 LI BND       y[2,3]     0
 UI BND       y[2,3]     1
 LI BND       y[2,4]     0
 UI BND       y[2,4]     1
 LI BND       y[2,5]     0
 UI BND       y[2,5]     1
 LI BND       y[2,6]     0
 UI BND       y[2,6]     1
 LI BND       y[2,7]     0
 UI BND       y[2,7]     1
 LI BND       y[2,8]     0
 UI BND       y[2,8]     1
 LI BND       y[2,9]     0
 UI BND       y[2,9]     1
 LI BND       y[2,10]    0
 UI BND       y[2,10]    1
 LI BND       y[3,0]     0
 UI BND       y[3,0]     1
 LI BND       y[3,1]     0
 UI BND       y[3,1]     1
 LI BND       y[3,2]     0
 UI BND       y[3,2]     1
 LI BND       y[3,5]     0
 UI BND       y[3,5]     1
 LI BND       y[3,7]     0
 UI BND       y[3,7]     1
 LI BND       y[3,8]     0
 UI BND       y[3,8]     1
 LI BND       y[3,10]    0
 UI BND       y[3,10]    1
 LI BND       y[4,0]     0
 UI BND       y[4,0]     1
 LI BND       y[4,1]     0
 UI BND       y[4,1]     1
 LI BND       y[4,2]     0
 UI BND       y[4,2]     1
 LI BND       y[4,5]     0
 UI BND       y[4,5]     1
 LI BND       y[4,6]     0
 UI BND       y[4,6]     1
 LI BND       y[4,7]     0
 UI BND       y[4,7]     1
 LI BND       y[4,8]     0
 UI BND       y[4,8]     1
 LI BND       y[4,9]     0
 UI BND       y[4,9]     1
 LI BND       y[5,0]     0
 UI BND       y[5,0]     1
 LI BND       y[5,2]     0
 UI BND       y[5,2]     1
 LI BND       y[5,3]     0
 UI BND       y[5,3]     1
 LI BND       y[5,4]     0
 UI BND       y[5,4]     1
 LI BND       y[5,7]     0
 UI BND       y[5,7]     1
 LI BND       y[5,9]     0
 UI BND       y[5,9]     1
 LI BND       y[5,10]    0
 UI BND       y[5,10]    1
 LI BND       y[6,0]     0
 UI BND       y[6,0]     1
 LI BND       y[6,1]     0
 UI BND       y[6,1]     1
 LI BND       y[6,2]     0
 UI BND       y[6,2]     1
 LI BND       y[6,4]     0
 UI BND       y[6,4]     1
 LI BND       y[6,7]     0
 UI BND       y[6,7]     1
 LI BND       y[6,8]     0
 UI BND       y[6,8]     1
 LI BND       y[6,9]     0
 UI BND       y[6,9]     1
 LI BND       y[7,0]     0
 UI BND       y[7,0]     1
 LI BND       y[7,1]     0
 UI BND       y[7,1]     1
 LI BND       y[7,2]     0
 UI BND       y[7,2]     1
 LI BND       y[7,3]     0
 UI BND       y[7,3]     1
 LI BND       y[7,4]     0
 UI BND       y[7,4]     1
 LI BND       y[7,5]     0
 UI BND       y[7,5]     1
 LI BND       y[7,6]     0
 UI BND       y[7,6]     1
 LI BND       y[7,8]     0
 UI BND       y[7,8]     1
 LI BND       y[7,10]    0
 UI BND       y[7,10]    1
 LI BND       y[8,0]     0
 UI BND       y[8,0]     1
 LI BND       y[8,1]     0
 UI BND       y[8,1]     1
 LI BND       y[8,2]     0
 UI BND       y[8,2]     1
 LI BND       y[8,3]     0
 UI BND       y[8,3]     1
 LI BND       y[8,4]     0
 UI BND       y[8,4]     1
 LI BND       y[8,6]     0
 UI BND       y[8,6]     1
 LI BND       y[8,7]     0
 UI BND       y[8,7]     1
 LI BND       y[8,9]     0
 UI BND       y[8,9]     1
 LI BND       y[8,10]    0
 UI BND       y[8,10]    1
 LI BND       y[9,0]     0
 UI BND       y[9,0]     1
 LI BND       y[9,2]     0
 UI BND       y[9,2]     1
 LI BND       y[9,4]     0
 UI BND       y[9,4]     1
 LI BND       y[9,5]     0
 UI BND       y[9,5]     1
 LI BND       y[9,6]     0
 UI BND       y[9,6]     1
 LI BND       y[9,8]     0
 UI BND       y[9,8]     1
 LI BND       y[10,0]    0
 UI BND       y[10,0]    1
 LI BND       y[10,1]    0
 UI BND       y[10,1]    1
 LI BND       y[10,2]    0
 UI BND       y[10,2]    1
 LI BND       y[10,3]    0
 UI BND       y[10,3]    1
 LI BND       y[10,5]    0
 UI BND       y[10,5]    1
 LI BND       y[10,7]    0
 UI BND       y[10,7]    1
 LI BND       y[10,8]    0
 UI BND       y[10,8]    1
 LI BND       u[0,1]     0
 UI BND       u[0,1]     1
 LI BND       u[0,2]     0
 UI BND       u[0,2]     1
 LI BND       u[0,3]     0
 UI BND       u[0,3]     1
 LI BND       u[0,4]     0
 UI BND       u[0,4]     1
 LI BND       u[0,5]     0
 UI BND       u[0,5]     1
 LI BND       u[0,6]     0
 UI BND       u[0,6]     1
 LI BND       u[0,7]     0
 UI BND       u[0,7]     1
 LI BND       u[0,8]     0
 UI BND       u[0,8]     1
 LI BND       u[0,9]     0
 UI BND       u[0,9]     1
 LI BND       u[0,10]    0
 UI BND       u[0,10]    1
 LI BND       u[1,0]     0
 UI BND       u[1,0]     1
 LI BND       u[1,2]     0
 UI BND       u[1,2]     1
 LI BND       u[1,3]     0
 UI BND       u[1,3]     1
 LI BND       u[1,4]     0
 UI BND       u[1,4]     1
 LI BND       u[1,6]     0
 UI BND       u[1,6]     1
 LI BND       u[1,7]     0
 UI BND       u[1,7]     1
 LI BND       u[1,8]     0
 UI BND       u[1,8]     1
 LI BND       u[1,10]    0
 UI BND       u[1,10]    1
 LI BND       u[2,0]     0
 UI BND       u[2,0]     1
 LI BND       u[2,1]     0
 UI BND       u[2,1]     1
 LI BND       u[2,3]     0
 UI BND       u[2,3]     1
 LI BND       u[2,4]     0
 UI BND       u[2,4]     1
 LI BND       u[2,5]     0
 UI BND       u[2,5]     1
 LI BND       u[2,6]     0
 UI BND       u[2,6]     1
 LI BND       u[2,7]     0
 UI BND       u[2,7]     1
 LI BND       u[2,8]     0
 UI BND       u[2,8]     1
 LI BND       u[2,9]     0
 UI BND       u[2,9]     1
 LI BND       u[2,10]    0
 UI BND       u[2,10]    1
 LI BND       u[3,0]     0
 UI BND       u[3,0]     1
 LI BND       u[3,1]     0
 UI BND       u[3,1]     1
 LI BND       u[3,2]     0
 UI BND       u[3,2]     1
 LI BND       u[3,5]     0
 UI BND       u[3,5]     1
 LI BND       u[3,7]     0
 UI BND       u[3,7]     1
 LI BND       u[3,8]     0
 UI BND       u[3,8]     1
 LI BND       u[3,10]    0
 UI BND       u[3,10]    1
 LI BND       u[4,0]     0
 UI BND       u[4,0]     1
 LI BND       u[4,1]     0
 UI BND       u[4,1]     1
 LI BND       u[4,2]     0
 UI BND       u[4,2]     1
 LI BND       u[4,5]     0
 UI BND       u[4,5]     1
 LI BND       u[4,6]     0
 UI BND       u[4,6]     1
 LI BND       u[4,7]     0
 UI BND       u[4,7]     1
 LI BND       u[4,8]     0
 UI BND       u[4,8]     1
 LI BND       u[4,9]     0
 UI BND       u[4,9]     1
 LI BND       u[5,0]     0
 UI BND       u[5,0]     1
 LI BND       u[5,2]     0
 UI BND       u[5,2]     1
 LI BND       u[5,3]     0
 UI BND       u[5,3]     1
 LI BND       u[5,4]     0
 UI BND       u[5,4]     1
 LI BND       u[5,7]     0
 UI BND       u[5,7]     1
 LI BND       u[5,9]     0
 UI BND       u[5,9]     1
 LI BND       u[5,10]    0
 UI BND       u[5,10]    1
 LI BND       u[6,0]     0
 UI BND       u[6,0]     1
 LI BND       u[6,1]     0
 UI BND       u[6,1]     1
 LI BND       u[6,2]     0
 UI BND       u[6,2]     1
 LI BND       u[6,4]     0
 UI BND       u[6,4]     1
 LI BND       u[6,7]     0
 UI BND       u[6,7]     1
 LI BND       u[6,8]     0
 UI BND       u[6,8]     1
 LI BND       u[6,9]     0
 UI BND       u[6,9]     1
 LI BND       u[7,0]     0
 UI BND       u[7,0]     1
 LI BND       u[7,1]     0
 UI BND       u[7,1]     1
 LI BND       u[7,2]     0
 UI BND       u[7,2]     1
 LI BND       u[7,3]     0
 UI BND       u[7,3]     1
 LI BND       u[7,4]     0
 UI BND       u[7,4]     1
 LI BND       u[7,5]     0
 UI BND       u[7,5]     1
 LI BND       u[7,6]     0
 UI BND       u[7,6]     1
 LI BND       u[7,8]     0
 UI BND       u[7,8]     1
 LI BND       u[7,10]    0
 UI BND       u[7,10]    1
 LI BND       u[8,0]     0
 UI BND       u[8,0]     1
 LI BND       u[8,1]     0
 UI BND       u[8,1]     1
 LI BND       u[8,2]     0
 UI BND       u[8,2]     1
 LI BND       u[8,3]     0
 UI BND       u[8,3]     1
 LI BND       u[8,4]     0
 UI BND       u[8,4]     1
 LI BND       u[8,6]     0
 UI BND       u[8,6]     1
 LI BND       u[8,7]     0
 UI BND       u[8,7]     1
 LI BND       u[8,9]     0
 UI BND       u[8,9]     1
 LI BND       u[8,10]    0
 UI BND       u[8,10]    1
 LI BND       u[9,0]     0
 UI BND       u[9,0]     1
 LI BND       u[9,2]     0
 UI BND       u[9,2]     1
 LI BND       u[9,4]     0
 UI BND       u[9,4]     1
 LI BND       u[9,5]     0
 UI BND       u[9,5]     1
 LI BND       u[9,6]     0
 UI BND       u[9,6]     1
 LI BND       u[9,8]     0
 UI BND       u[9,8]     1
 LI BND       u[10,0]    0
 UI BND       u[10,0]    1
 LI BND       u[10,1]    0
 UI BND       u[10,1]    1
 LI BND       u[10,2]    0
 UI BND       u[10,2]    1
 LI BND       u[10,3]    0
 UI BND       u[10,3]    1
 LI BND       u[10,5]    0
 UI BND       u[10,5]    1
 LI BND       u[10,7]    0
 UI BND       u[10,7]    1
 LI BND       u[10,8]    0
 UI BND       u[10,8]    1
ENDATA
